p cnf 28 39
-1 28 0 
-2 17 27 28 0 
-3 -2 17 27 28 0 
-4 -5 28 0 
-6 28 0 
-7 22 28 0 
-8 -7 22 28 0 
-9 19 -2 17 27 28 0 
-10 -7 22 28 0 
-11 -7 22 28 0 
-12 28 0 
-13 28 0 
-14 -2 17 27 28 0 
-15 23 28 0 
-9 19 28 0 
-11 -16 -7 22 28 0 
-17 2 27 28 0 
-10 -2 17 27 28 0 
-18 -19 9 28 0 
-20 -16 -1 28 0 
-21 28 0 
-18 -20 -22 7 28 0 
-7 22 -4 -9 19 28 0 
-23 15 -14 28 0 
-24 28 0 
-1 -20 28 0 
-4 -7 22 28 0 
-20 -16 -2 17 27 28 0 
-25 -7 22 28 0 
-11 -2 17 27 28 0 
-7 22 -9 19 28 0 
-11 -14 -7 22 28 0 
-20 -14 -2 17 27 28 0 
-25 -16 -2 17 27 28 0 
-26 28 0 
-22 7 28 0 
-10 -27 2 17 28 0 
-14 -7 22 28 0 
-20 -14 -7 22 28 0 
